p cnf 1770 1152
1 0
2 0
3 0
4 0
5 0
6 0
7 0
8 0
9 0
10 0
11 0
12 0
13 0
14 0
15 0
16 0
17 0
18 0
19 0
20 0
21 0
22 0
23 0
24 0
25 0
26 0
27 0
28 0
29 0
30 0
31 0
32 0
33 0
34 0
35 0
36 0
37 0
38 0
39 0
40 0
41 0
42 0
43 0
44 0
45 0
46 0
47 0
48 0
49 0
50 0
51 0
52 0
53 0
54 0
55 0
56 0
57 0
58 0
59 0
60 0
61 0
62 0
63 0
64 0
65 0
66 0
67 0
68 0
69 0
70 0
71 0
72 0
73 0
74 0
75 0
76 0
77 0
78 0
79 0
80 0
81 0
82 0
83 0
84 0
85 0
86 0
87 0
88 0
89 0
90 0
91 92 0
93 94 0
95 96 0
97 98 0
99 100 0
101 102 0
103 104 0
105 106 0
107 108 0
109 110 0
111 112 0
113 114 0
115 116 0
117 118 0
119 120 0
121 122 0
123 124 0
125 126 0
127 128 0
129 130 0
131 132 0
133 134 0
135 136 0
137 138 0
139 140 0
141 142 0
143 144 0
145 146 0
147 148 0
149 150 0
151 152 0
153 154 0
155 156 0
157 158 0
159 160 0
161 162 0
163 164 0
165 166 0
167 168 0
169 170 0
171 172 0
173 174 0
175 176 0
177 178 0
179 180 0
181 182 0
183 184 0
185 186 0
187 188 0
189 190 0
191 192 0
193 194 0
195 196 0
197 198 0
199 200 0
201 202 0
203 204 0
205 206 0
207 208 0
209 210 0
211 212 0
213 214 0
215 216 0
217 218 0
219 220 0
221 222 0
223 224 0
225 226 0
227 228 0
229 230 0
231 232 0
233 234 0
235 236 0
237 238 0
239 240 0
241 242 0
243 244 0
245 246 0
247 248 0
249 250 0
251 252 0
253 254 0
255 256 0
257 258 0
259 260 0
261 262 0
263 264 0
265 266 0
267 268 0
269 270 0
271 272 0
273 274 0
275 276 0
277 278 0
279 280 0
281 282 0
283 284 0
285 286 0
287 288 0
289 290 0
291 292 0
293 294 0
295 296 0
297 298 0
299 300 0
301 302 0
303 304 0
305 306 0
307 308 0
309 310 0
311 312 0
313 314 0
315 316 0
317 318 0
319 320 0
321 322 0
323 324 0
325 326 0
327 328 0
329 330 0
331 332 0
333 334 0
335 336 0
337 338 0
339 340 0
341 342 0
343 344 0
345 346 0
347 348 0
349 350 0
351 352 0
353 354 0
355 356 0
357 358 0
359 360 0
361 362 0
363 364 0
365 366 0
367 368 0
369 370 0
371 372 0
373 374 0
375 376 0
377 378 0
379 380 0
381 382 0
383 384 0
385 386 0
387 388 0
389 390 0
391 392 0
393 394 0
395 396 0
397 398 0
399 400 0
401 402 0
403 404 0
405 406 0
407 408 0
409 410 0
411 412 0
413 414 0
415 416 0
417 418 0
419 420 0
421 422 0
423 424 0
425 426 0
427 428 0
429 430 0
431 432 0
433 434 0
435 436 0
437 438 0
439 440 0
441 442 0
443 444 0
445 446 0
447 448 0
449 450 0
451 452 0
453 454 0
455 456 0
457 458 0
459 460 0
461 462 0
463 464 0
465 466 0
467 468 0
469 470 0
471 472 0
473 474 0
475 476 0
477 478 0
479 480 0
481 482 0
483 484 0
485 486 0
487 488 0
489 490 0
491 492 0
493 494 0
495 496 0
497 498 0
499 500 0
501 502 0
503 504 0
505 506 0
507 508 0
509 510 0
511 512 0
513 514 0
515 516 0
517 518 0
519 520 0
521 522 0
523 524 0
525 526 0
527 528 0
529 530 0
531 532 0
533 534 0
535 536 0
537 538 0
539 540 0
541 542 0
543 544 0
545 546 0
547 548 0
549 550 0
551 552 0
553 554 0
555 556 0
557 558 0
559 560 0
561 562 0
563 564 0
565 566 0
567 568 0
569 570 0
571 572 0
573 574 0
575 576 0
577 578 0
579 580 0
581 582 0
583 584 0
585 586 0
587 588 0
589 590 0
591 592 0
593 594 0
595 596 0
597 598 0
599 600 0
601 602 0
603 604 0
605 606 0
607 608 0
609 610 0
611 612 0
613 614 0
615 616 0
617 618 0
619 620 0
621 622 0
623 624 0
625 626 0
627 628 0
629 630 0
631 632 0
633 634 0
635 636 0
637 638 0
639 640 0
641 642 0
643 644 0
645 646 0
647 648 0
649 650 0
651 652 0
653 654 0
655 656 0
657 658 0
659 660 0
661 662 0
663 664 0
665 666 0
667 668 0
669 670 0
671 672 0
673 674 0
675 676 0
677 678 0
679 680 0
681 682 0
683 684 0
685 686 0
687 688 0
689 690 0
691 692 0
693 694 0
695 696 0
697 698 0
699 700 0
701 702 0
703 704 0
705 706 0
707 708 0
709 710 0
711 712 0
713 714 0
715 716 0
717 718 0
719 720 0
721 722 0
723 724 0
725 726 0
727 728 0
729 730 0
731 732 0
733 734 0
735 736 0
737 738 0
739 740 0
741 742 0
743 744 0
745 746 0
747 748 0
749 750 0
751 752 0
753 754 0
755 756 0
757 758 0
759 760 0
761 762 0
763 764 0
765 766 0
767 768 0
769 770 0
771 772 0
773 774 0
775 776 0
777 778 0
779 780 0
781 782 0
783 784 0
785 786 0
787 788 0
789 790 0
791 792 0
793 794 0
795 796 0
797 798 0
799 800 0
801 802 0
803 804 0
805 806 0
807 808 0
809 810 0
811 812 0
813 814 0
815 816 0
817 818 0
819 820 0
821 822 0
823 824 0
825 826 0
827 828 0
829 830 0
831 832 0
833 834 0
835 836 0
837 838 0
839 840 0
841 842 0
843 844 0
845 846 0
847 848 0
849 850 0
851 852 0
853 854 0
855 856 0
857 858 0
859 860 0
861 862 0
863 864 0
865 866 0
867 868 0
869 870 0
871 872 0
873 874 0
875 876 0
877 878 0
879 880 0
881 882 0
883 884 0
885 886 0
887 888 0
889 890 0
891 892 0
893 894 0
895 896 0
897 898 0
899 900 0
901 902 0
903 904 0
905 906 0
907 908 0
909 910 0
911 912 0
913 914 0
915 916 0
917 918 0
919 920 0
921 922 0
923 924 0
925 926 0
927 928 0
929 930 0
931 932 0
933 934 0
935 936 0
937 938 0
939 940 0
941 942 0
943 944 0
945 946 0
947 948 0
949 950 0
951 952 0
953 954 0
955 956 0
957 958 0
959 960 0
961 962 0
963 964 0
965 966 0
967 968 0
969 970 0
971 972 0
973 974 0
975 976 0
977 978 0
979 980 0
981 982 0
983 984 0
985 986 0
987 988 0
989 990 0
991 0
992 0
-993 991 0
-994 993 0
-995 996 0
-996 997 0
998 0
999 0
-1000 1001 0
-1002 1000 0
-1003 1004 0
-1004 1005 0
1006 0
1007 0
-1008 1009 0
-1010 1008 0
-1011 1012 0
-1012 1013 0
1014 0
1015 0
-1016 1017 0
-1018 1016 0
-1019 1020 0
-1020 1021 0
1022 0
1023 0
-1024 1025 0
-1026 1024 0
-1027 1028 0
-1028 1029 0
1030 0
1031 0
-1032 1033 0
-1034 1032 0
-1035 1036 0
-1036 1037 0
1038 0
1039 0
-1040 1041 0
-1042 1040 0
-1043 1044 0
-1044 1045 0
1046 0
1047 0
-1048 1049 0
-1050 1048 0
-1051 1052 0
-1052 1053 0
1054 0
1055 0
-1056 1057 0
-1058 1056 0
-1059 1060 0
-1060 1061 0
1062 0
1063 0
-1064 1065 0
-1066 1064 0
-1067 1068 0
-1068 1063 0
1069 0
1070 0
-1071 1069 0
-1072 1071 0
-1073 1074 0
-1074 1075 0
1076 0
1077 0
-1078 1079 0
-1080 1078 0
-1081 1082 0
-1082 1083 0
1084 0
1085 0
-1086 1087 0
-1088 1086 0
-1089 1090 0
-1090 1091 0
1092 0
1093 0
-1094 1095 0
-1096 1094 0
-1097 1098 0
-1098 1099 0
1100 0
1101 0
-1102 1103 0
-1104 1102 0
-1105 1106 0
-1106 1107 0
1108 0
1109 0
-1110 1111 0
-1112 1110 0
-1113 1114 0
-1114 1115 0
1116 0
1117 0
-1118 1119 0
-1120 1118 0
-1121 1122 0
-1122 1123 0
1124 0
1125 0
-1126 1127 0
-1128 1126 0
-1129 1130 0
-1130 1131 0
1132 0
1133 0
-1134 1135 0
-1136 1134 0
-1137 1138 0
-1138 1139 0
1140 0
1141 0
-1142 1143 0
-1144 1142 0
-1145 1146 0
-1146 1141 0
1147 0
1148 0
-1149 1147 0
-1150 1149 0
-1151 1152 0
-1152 1153 0
1154 0
1155 0
-1156 1157 0
-1158 1156 0
-1159 1160 0
-1160 1161 0
1162 0
1163 0
-1164 1165 0
-1166 1164 0
-1167 1168 0
-1168 1169 0
1170 0
1171 0
-1172 1173 0
-1174 1172 0
-1175 1176 0
-1176 1177 0
1178 0
1179 0
-1180 1181 0
-1182 1180 0
-1183 1184 0
-1184 1185 0
1186 0
1187 0
-1188 1189 0
-1190 1188 0
-1191 1192 0
-1192 1193 0
1194 0
1195 0
-1196 1197 0
-1198 1196 0
-1199 1200 0
-1200 1201 0
1202 0
1203 0
-1204 1205 0
-1206 1204 0
-1207 1208 0
-1208 1209 0
1210 0
1211 0
-1212 1213 0
-1214 1212 0
-1215 1216 0
-1216 1217 0
1218 0
1219 0
-1220 1221 0
-1222 1220 0
-1223 1224 0
-1224 1219 0
1225 0
1226 0
-1227 1225 0
-1228 1227 0
-1229 1230 0
-1230 1231 0
1232 0
1233 0
-1234 1235 0
-1236 1234 0
-1237 1238 0
-1238 1239 0
1240 0
1241 0
-1242 1243 0
-1244 1242 0
-1245 1246 0
-1246 1247 0
1248 0
1249 0
-1250 1251 0
-1252 1250 0
-1253 1254 0
-1254 1255 0
1256 0
1257 0
-1258 1259 0
-1260 1258 0
-1261 1262 0
-1262 1263 0
1264 0
1265 0
-1266 1267 0
-1268 1266 0
-1269 1270 0
-1270 1271 0
1272 0
1273 0
-1274 1275 0
-1276 1274 0
-1277 1278 0
-1278 1279 0
1280 0
1281 0
-1282 1283 0
-1284 1282 0
-1285 1286 0
-1286 1287 0
1288 0
1289 0
-1290 1291 0
-1292 1290 0
-1293 1294 0
-1294 1295 0
1296 0
1297 0
-1298 1299 0
-1300 1298 0
-1301 1302 0
-1302 1297 0
1303 0
1304 0
-1305 1303 0
-1306 1305 0
-1307 1308 0
-1308 1309 0
1310 0
1311 0
-1312 1313 0
-1314 1312 0
-1315 1316 0
-1316 1317 0
1318 0
1319 0
-1320 1321 0
-1322 1320 0
-1323 1324 0
-1324 1325 0
1326 0
1327 0
-1328 1329 0
-1330 1328 0
-1331 1332 0
-1332 1333 0
1334 0
1335 0
-1336 1337 0
-1338 1336 0
-1339 1340 0
-1340 1341 0
1342 0
1343 0
-1344 1345 0
-1346 1344 0
-1347 1348 0
-1348 1349 0
1350 0
1351 0
-1352 1353 0
-1354 1352 0
-1355 1356 0
-1356 1357 0
1358 0
1359 0
-1360 1361 0
-1362 1360 0
-1363 1364 0
-1364 1365 0
1366 0
1367 0
-1368 1369 0
-1370 1368 0
-1371 1372 0
-1372 1373 0
1374 0
1375 0
-1376 1377 0
-1378 1376 0
-1379 1380 0
-1380 1375 0
1381 0
1382 0
-1383 1381 0
-1384 1383 0
-1385 1386 0
-1386 1387 0
1388 0
1389 0
-1390 1391 0
-1392 1390 0
-1393 1394 0
-1394 1395 0
-1391 -1394 0
-1390 -1395 0
-1391 -47 1396 0
-1391 -190 1002 0
-1391 -206 1112 0
-1391 -220 1150 0
-1391 -232 1228 0
-1391 -242 1322 0
-1391 -251 1397 0
-1391 -253 1398 0
-1391 -255 1399 0
-1391 -257 1400 0
1401 0
1402 0
-1403 1404 0
-1396 1403 0
-1405 1406 0
-1406 1407 0
1408 0
1409 0
-1410 1411 0
-1412 1410 0
-1413 1414 0
-1414 1415 0
1416 0
1417 0
-1418 1419 0
-1420 1418 0
-1421 1422 0
-1422 1423 0
1424 0
1425 0
-1426 1427 0
-1428 1426 0
-1429 1430 0
-1430 1431 0
1432 0
1433 0
-1434 1435 0
-1436 1434 0
-1437 1438 0
-1438 1439 0
1440 0
1441 0
-1442 1443 0
-1444 1442 0
-1445 1446 0
-1446 1447 0
1448 0
1449 0
-1450 1451 0
-1452 1450 0
-1453 1454 0
-1454 1455 0
1456 0
1457 0
-1458 1459 0
-1460 1458 0
-1461 1462 0
-1462 1457 0
1463 0
1464 0
-1465 1463 0
-1397 1465 0
-1466 1467 0
-1467 1468 0
1469 0
1470 0
-1471 1472 0
-1473 1471 0
-1474 1475 0
-1475 1476 0
1477 0
1478 0
-1479 1480 0
-1481 1479 0
-1482 1483 0
-1483 1484 0
1485 0
1486 0
-1487 1488 0
-1489 1487 0
-1490 1491 0
-1491 1492 0
1493 0
1494 0
-1495 1496 0
-1497 1495 0
-1498 1499 0
-1499 1500 0
1501 0
1502 0
-1503 1504 0
-1505 1503 0
-1506 1507 0
-1507 1508 0
1509 0
1510 0
-1511 1512 0
-1513 1511 0
-1514 1515 0
-1515 1516 0
1517 0
1518 0
-1519 1520 0
-1521 1519 0
-1522 1523 0
-1523 1524 0
1525 0
1526 0
-1527 1528 0
-1529 1527 0
-1530 1531 0
-1531 1532 0
1533 0
1534 0
-1535 1536 0
-1537 1535 0
-1538 1539 0
-1539 1534 0
1540 0
1541 0
-1542 1540 0
-1543 1542 0
-1544 1545 0
-1545 1546 0
1547 0
1548 0
-1549 1550 0
-1551 1549 0
-1552 1553 0
-1553 1554 0
1555 0
1556 0
-1557 1558 0
-1398 1557 0
-1559 1560 0
-1560 1561 0
1562 0
1563 0
-1564 1565 0
-1566 1564 0
-1567 1568 0
-1568 1569 0
1570 0
1571 0
-1572 1573 0
-1574 1572 0
-1575 1576 0
-1576 1577 0
1578 0
1579 0
-1580 1581 0
-1582 1580 0
-1583 1584 0
-1584 1585 0
1586 0
1587 0
-1588 1589 0
-1590 1588 0
-1591 1592 0
-1592 1593 0
1594 0
1595 0
-1596 1597 0
-1598 1596 0
-1599 1600 0
-1600 1601 0
1602 0
1603 0
-1604 1605 0
-1606 1604 0
-1607 1608 0
-1608 1609 0
1610 0
1611 0
-1612 1613 0
-1614 1612 0
-1615 1616 0
-1616 1611 0
1617 0
1618 0
-1619 1617 0
-1620 1619 0
-1621 1622 0
-1622 1623 0
1624 0
1625 0
-1626 1627 0
-1399 1626 0
-1628 1629 0
-1629 1630 0
1631 0
1632 0
-1633 1634 0
-1635 1633 0
-1636 1637 0
-1637 1638 0
1639 0
1640 0
-1641 1642 0
-1643 1641 0
-1644 1645 0
-1645 1646 0
1647 0
1648 0
-1649 1650 0
-1651 1649 0
-1652 1653 0
-1653 1654 0
1655 0
1656 0
-1657 1658 0
-1659 1657 0
-1660 1661 0
-1661 1662 0
1663 0
1664 0
-1665 1666 0
-1667 1665 0
-1668 1669 0
-1669 1670 0
1671 0
1672 0
-1673 1674 0
-1675 1673 0
-1676 1677 0
-1677 1678 0
1679 0
1680 0
-1681 1682 0
-1683 1681 0
-1684 1685 0
-1685 1686 0
1687 0
1688 0
-1689 1690 0
-1691 1689 0
-1692 1693 0
-1693 1688 0
1694 0
1695 0
-1696 1694 0
-1400 1696 0
-1697 1698 0
-1698 1699 0
1700 0
1701 0
-1702 1703 0
-1704 1702 0
-1705 1706 0
-1706 1707 0
1708 0
1709 0
-1710 1711 0
-1712 1710 0
-1713 1714 0
-1714 1715 0
1716 0
1717 0
-1718 1719 0
-1720 1718 0
-1721 1722 0
-1722 1723 0
1724 0
1725 0
-1726 1727 0
-1728 1726 0
-1729 1730 0
-1730 1731 0
1732 0
1733 0
-1734 1735 0
-1736 1734 0
-1737 1738 0
-1738 1739 0
1740 0
1741 0
-1742 1743 0
-1744 1742 0
-1745 1746 0
-1746 1747 0
1748 0
1749 0
-1750 1751 0
-1752 1750 0
-1753 1754 0
-1754 1755 0
1756 0
1757 0
-1758 1759 0
-1760 1758 0
-1761 1762 0
-1762 1763 0
1764 0
1765 0
-1766 1767 0
-1768 1766 0
-1769 1770 0
-1770 1765 0
